000 000 000 000 000 000 000 000 -99 -99 -99 -99 000 000 000 -99 -99 -99 -99 000 -99 000 000 002 000 000 000 -99 -99 000 000
000 000 000 000 000 000 000 000 -99 -99 -99 -99 -99 000 000 000 -99 -99 -99 000 000 -99 002 002 001 000 -99 -99 -99 000 000
-99 000 000 000 000 000 000 000 000 000 -99 -99 -99 -99 000 000 000 -99 -99 -99 000 -99 -99 016 017 000 000 -99 -99 -99 000
000 000 000 000 000 000 000 000 000 000 -99 -99 -99 -99 000 000 -99 -99 -99 -99 000 -99 -99 002 039 000 000 -99 -99 -99 000
000 000 000 000 000 000 000 000 000 000 000 -99 000 -99 -99 000 -99 -99 -99 -99 000 000 -99 000 003 000 000 -99 -99 -99 000
000 000 000 000 000 000 000 000 000 000 -99 000 000 -99 -99 -99 -99 -99 -99 -99 -99 000 000 000 000 000 000 -99 -99 -99 000
000 000 000 000 000 000 000 000 000 -99 -99 000 000 000 -99 -99 000 000 -99 -99 -99 -99 -99 000 000 000 -99 -99 -99 -99 -99
000 000 000 000 000 000 000 -99 000 -99 000 -99 -99 000 -99 000 000 000 -99 -99 000 -99 -99 000 000 000 -99 -99 -99 000 000
000 000 000 000 000 000 -99 -99 000 000 000 000 -99 -99 -99 000 000 000 000 -99 000 -99 -99 000 000 000 -99 -99 -99 000 000
000 000 000 000 000 000 -99 000 000 000 000 000 -99 -99 000 000 -99 000 000 000 000 000 -99 -99 000 -99 -99 -99 000 000 000
000 000 000 000 000 -99 000 000 000 000 000 000 000 000 -99 000 000 000 000 000 000 000 -99 -99 000 000 -99 -99 000 000 000
000 000 000 000 000 000 -99 000 000 000 000 000 000 000 -99 000 000 -99 000 000 000 000 001 000 000 000 000 000 000 000 000
000 000 000 000 000 000 000 000 000 000 000 000 000 000 -99 000 000 000 000 000 000 000 000 000 000 000 000 000 000 000 000
000 000 000 000 000 000 000 000 000 000 000 000 000 -99 -99 -99 000 000 000 000 -99 -99 000 000 000 000 000 000 000 000 000
000 000 000 000 000 000 000 000 000 -99 -99 -99 000 000 -99 -99 000 000 000 000 -99 -99 000 000 000 000 000 000 000 -99 000
000 000 000 000 000 000 000 000 000 -99 -99 -99 000 -99 -99 -99 000 000 000 -99 -99 -99 000 000 000 000 000 000 -99 000 -99
000 000 000 000 000 000 000 000 000 -99 -99 -99 -99 000 000 -99 000 000 000 -99 -99 -99 000 000 000 000 000 000 -99 000 000
000 000 000 000 -99 -99 000 000 000 000 000 000 -99 000 000 -99 000 000 -99 -99 -99 -99 000 -99 000 000 -99 000 -99 000 000
000 000 000 000 -99 -99 -99 000 000 000 000 000 -99 -99 000 000 000 000 -99 -99 -99 000 000 -99 000 000 000 000 -99 000 000
000 000 000 000 -99 -99 -99 -99 000 000 000 000 -99 -99 -99 000 000 000 -99 000 -99 000 000 -99 -99 000 -99 -99 -99 000 000
000 000 000 000 000 -99 -99 -99 000 000 000 000 -99 -99 -99 000 000 -99 000 000 000 000 000 -99 -99 -99 -99 -99 -99 -99 -99
000 000 000 000 000 000 -99 000 000 000 -99 -99 -99 -99 -99 000 000 000 000 000 000 000 000 -99 -99 -99 -99 -99 -99 -99 -99
000 000 000 000 000 000 -99 000 000 000 -99 -99 -99 -99 -99 000 000 000 000 000 000 000 000 -99 -99 -99 -99 -99 -99 -99 -99
000 000 000 000 000 000 -99 000 000 -99 -99 -99 000 -99 000 000 000 000 000 000 000 000 000 -99 -99 -99 -99 -99 -99 -99 000
000 000 000 000 000 000 -99 000 000 -99 -99 -99 -99 000 000 000 000 000 000 000 000 000 000 -99 -99 -99 -99 -99 -99 -99 000
000 000 -99 000 000 000 000 000 000 000 -99 -99 -99 000 000 000 000 000 000 000 000 -99 -99 -99 -99 -99 -99 -99 -99 000 000
000 000 -99 000 000 000 000 000 000 000 -99 -99 -99 -99 000 000 000 000 000 000 000 000 -99 -99 -99 -99 -99 -99 -99 000 000
000 000 000 000 000 000 000 000 000 000 -99 -99 -99 -99 000 000 000 000 000 000 000 000 -99 -99 -99 -99 -99 -99 -99 000 000
000 000 000 000 000 000 000 000 000 000 -99 -99 -99 -99 000 000 000 000 000 000 000 000 -99 -99 -99 -99 -99 -99 -99 000 000
000 000 000 000 000 000 000 000 000 000 000 -99 -99 -99 000 000 000 000 000 000 000 000 -99 -99 -99 -99 -99 -99 -99 -99 000
000 000 000 000 000 000 000 000 000 000 000 -99 -99 -99 -99 000 000 000 000 000 000 000 -99 000 -99 -99 -99 -99 -99 -99 000
000 000 -99 000 000 -99 000 000 000 000 -99 -99 -99 -99 000 000 000 000 000 -99 000 000 000 000 000 -99 -99 -99 -99 -99 000
000 000 000 000 000 000 -99 000 000 000 -99 -99 -99 000 000 000 000 000 000 -99 000 000 000 000 000 -99 -99 -99 000 000 000
000 000 000 000 000 000 000 000 000 -99 -99 -99 -99 000 000 000 000 000 000 -99 000 000 000 000 000 000 -99 000 000 000 000
000 000 000 000 000 000 000 000 000 000 -99 -99 -99 000 000 000 000 000 -99 000 000 -99 000 000 000 000 000 000 000 000 000
000 000 000 000 000 000 000 000 000 -99 -99 -99 000 000 000 000 000 000 000 000 000 000 000 000 000 000 000 000 000 000 000
000 -99 -99 000 000 -99 000 000 000 000 -99 -99 000 000 000 000 000 000 000 000 000 000 000 -99 000 000 000 000 000 000 000
000 -99 000 000 000 000 000 000 000 -99 -99 000 000 000 000 000 000 000 000 -99 000 000 -99 -99 000 000 000 000 -99 000 000
000 000 000 000 000 000 -99 000 000 -99 -99 000 000 000 000 000 000 000 -99 -99 -99 000 000 000 000 000 000 000 -99 -99 -99
-99 000 000 000 000 -99 -99 000 -99 -99 -99 000 000 000 000 000 000 000 -99 -99 -99 -99 000 000 -99 000 000 -99 -99 -99 -99
000 000 000 000 000 -99 -99 -99 -99 000 000 000 000 000 000 000 000 000 -99 -99 -99 -99 000 000 -99 000 000 -99 -99 -99 -99
000 000 -99 000 -99 000 000 -99 000 000 000 000 000 000 000 000 000 000 000 -99 -99 -99 000 -99 000 000 -99 -99 -99 -99 -99
000 000 022 010 005 000 -99 -99 000 000 000 000 000 000 -99 000 -99 000 000 000 000 -99 -99 -99 000 000 -99 -99 -99 -99 -99
000 -99 015 017 -99 000 -99 -99 -99 -99 -99 -99 000 000 000 000 -99 000 -99 000 000 -99 -99 -99 000 000 -99 000 -99 -99 000
000 -99 -99 015 -99 -99 -99 -99 -99 -99 -99 000 000 000 000 000 -99 -99 -99 -99 -99 -99 -99 000 000 -99 000 000 -99 -99 -99
-99 -99 -99 -99 -99 -99 -99 -99 -99 -99 -99 -99 000 000 000 -99 -99 -99 000 -99 -99 -99 -99 000 000 000 000 000 -99 -99 000
-99 -99 -99 -99 -99 -99 -99 -99 -99 -99 -99 -99 000 000 000 -99 -99 -99 000 000 000 000 000 000 000 000 000 -99 -99 -99 000
-99 -99 -99 -99 -99 -99 -99 -99 -99 -99 -99 -99 -99 000 000 -99 -99 000 -99 -99 -99 000 000 000 000 000 000 -99 000 -99 -99
-99 -99 -99 -99 -99 -99 -99 -99 -99 -99 -99 -99 -99 -99 -99 -99 -99 000 000 -99 -99 000 000 000 000 000 000 000 000 -99 -99
-99 -99 -99 -99 -99 -99 -99 -99 -99 -99 -99 -99 -99 -99 -99 -99 -99 000 000 -99 -99 000 000 000 000 000 000 000 000 -99 -99
-99 -99 -99 -99 -99 -99 -99 -99 -99 -99 -99 -99 -99 -99 -99 -99 000 000 000 000 000 000 -99 -99 000 000 000 000 000 -99 -99
-99 -99 -99 -99 -99 -99 -99 -99 -99 -99 -99 -99 -99 -99 -99 -99 -99 000 -99 000 000 -99 -99 -99 000 000 000 000 -99 -99 -99
-99 -99 -99 -99 -99 -99 -99 -99 -99 -99 -99 -99 -99 -99 -99 -99 -99 -99 -99 000 -99 -99 -99 -99 000 001 000 000 -99 -99 -99
-99 -99 -99 -99 -99 -99 -99 -99 -99 -99 -99 -99 -99 -99 -99 -99 -99 -99 -99 -99 -99 -99 -99 -99 000 000 000 000 -99 -99 -99
-99 -99 -99 -99 -99 -99 -99 -99 -99 -99 -99 -99 -99 -99 -99 000 -99 000 -99 -99 -99 -99 -99 -99 000 000 000 -99 -99 -99 -99
